\Problem name: compact

Minimize
OBJROW: C
Subject To
ord(0,1):  x(0,0) - x(0,1) >= 6
ord(0,2):  - x(0,0) + x(0,2) >= 7
ord(1,1):  x(1,0) - x(1,1) >= 10
ord(1,2):  - x(1,0) + x(1,2) >= 3
ord(2,1):  x(2,0) - x(2,2) >= 5
ord(2,2):  - x(2,0) + x(2,1) >= 4
triangle2(0,1,0):  y(0,1,0) + y(1,0,0) = 1
triangle2(0,1,1):  y(0,1,1) + y(1,0,1) = 1
triangle2(0,1,2):  y(0,1,2) + y(1,0,2) = 1
triangle2(0,2,0):  y(0,2,0) + y(2,0,0) = 1
triangle2(0,2,1):  y(0,2,1) + y(2,0,1) = 1
triangle2(0,2,2):  y(0,2,2) + y(2,0,2) = 1
triangle2(1,2,0):  y(1,2,0) + y(2,1,0) = 1
triangle2(1,2,1):  y(1,2,1) + y(2,1,1) = 1
triangle2(1,2,2):  y(1,2,2) + y(2,1,2) = 1
MCLinV(0,1,0):  x(0,0) - v(0,1,0) - x(1,0) = 3
MCLinV(1,0,0):  - x(0,0) - v(1,0,0) + x(1,0) = 7
MCLin1(0,1,0):  u(0,1,0) >= -0
MCLin2(0,1,0):  -45 y(1,0,0) - u(0,1,0) <= -0
MCLin3(0,1,0):  27 y(1,0,0) + v(0,1,0) - u(0,1,0) <= 27
MCLin4(0,1,0):  27 y(1,0,0) - u(0,1,0) >= -0
MCLin5(0,1,0):  -45 y(1,0,0) + v(0,1,0) - u(0,1,0) >= -45
MCLin6(1,0,0):  u(1,0,0) >= -0
MCLin7(1,0,0):  -37 y(0,1,0) - u(1,0,0) <= -0
MCLin8(1,0,0):  35 y(0,1,0) + v(1,0,0) - u(1,0,0) <= 35
MCLin9(1,0,0):  35 y(0,1,0) - u(1,0,0) >= -0
MCLin10(1,0,0):  -37 y(0,1,0) + v(1,0,0) - u(1,0,0) >= -37
MCLinV(0,1,1):  x(0,1) - v(0,1,1) - x(1,1) = 10
MCLinV(1,0,1):  - x(0,1) - v(1,0,1) + x(1,1) = 6
MCLin1(0,1,1):  u(0,1,1) >= -0
MCLin2(0,1,1):  -48 y(1,0,1) - u(0,1,1) <= -0
MCLin3(0,1,1):  24 y(1,0,1) + v(0,1,1) - u(0,1,1) <= 24
MCLin4(0,1,1):  24 y(1,0,1) - u(0,1,1) >= -0
MCLin5(0,1,1):  -48 y(1,0,1) + v(0,1,1) - u(0,1,1) >= -48
MCLin6(1,0,1):  u(1,0,1) >= -0
MCLin7(1,0,1):  -40 y(0,1,1) - u(1,0,1) <= -0
MCLin8(1,0,1):  32 y(0,1,1) + v(1,0,1) - u(1,0,1) <= 32
MCLin9(1,0,1):  32 y(0,1,1) - u(1,0,1) >= -0
MCLin10(1,0,1):  -40 y(0,1,1) + v(1,0,1) - u(1,0,1) >= -40
MCLinV(0,1,2):  x(0,2) - v(0,1,2) - x(1,2) = 6
MCLinV(1,0,2):  - x(0,2) - v(1,0,2) + x(1,2) = 10
MCLin1(0,1,2):  u(0,1,2) >= -0
MCLin2(0,1,2):  -44 y(1,0,2) - u(0,1,2) <= -0
MCLin3(0,1,2):  28 y(1,0,2) + v(0,1,2) - u(0,1,2) <= 28
MCLin4(0,1,2):  28 y(1,0,2) - u(0,1,2) >= -0
MCLin5(0,1,2):  -44 y(1,0,2) + v(0,1,2) - u(0,1,2) >= -44
MCLin6(1,0,2):  u(1,0,2) >= -0
MCLin7(1,0,2):  -44 y(0,1,2) - u(1,0,2) <= -0
MCLin8(1,0,2):  28 y(0,1,2) + v(1,0,2) - u(1,0,2) <= 28
MCLin9(1,0,2):  28 y(0,1,2) - u(1,0,2) >= -0
MCLin10(1,0,2):  -44 y(0,1,2) + v(1,0,2) - u(1,0,2) >= -44
MCLinV(0,2,0):  x(0,0) - v(0,2,0) - x(2,0) = 4
MCLinV(2,0,0):  - x(0,0) - v(2,0,0) + x(2,0) = 7
MCLin1(0,2,0):  u(0,2,0) >= -0
MCLin2(0,2,0):  -45 y(2,0,0) - u(0,2,0) <= -0
MCLin3(0,2,0):  31 y(2,0,0) + v(0,2,0) - u(0,2,0) <= 31
MCLin4(0,2,0):  31 y(2,0,0) - u(0,2,0) >= -0
MCLin5(0,2,0):  -45 y(2,0,0) + v(0,2,0) - u(0,2,0) >= -45
MCLin6(2,0,0):  u(2,0,0) >= -0
MCLin7(2,0,0):  -42 y(0,2,0) - u(2,0,0) <= -0
MCLin8(2,0,0):  34 y(0,2,0) + v(2,0,0) - u(2,0,0) <= 34
MCLin9(2,0,0):  34 y(0,2,0) - u(2,0,0) >= -0
MCLin10(2,0,0):  -42 y(0,2,0) + v(2,0,0) - u(2,0,0) >= -42
MCLinV(0,2,1):  x(0,1) - v(0,2,1) - x(2,1) = 6
MCLinV(2,0,1):  - x(0,1) - v(2,0,1) + x(2,1) = 6
MCLin1(0,2,1):  u(0,2,1) >= -0
MCLin2(0,2,1):  -57 y(2,0,1) - u(0,2,1) <= -0
MCLin3(0,2,1):  19 y(2,0,1) + v(0,2,1) - u(0,2,1) <= 19
MCLin4(0,2,1):  19 y(2,0,1) - u(0,2,1) >= -0
MCLin5(0,2,1):  -57 y(2,0,1) + v(0,2,1) - u(0,2,1) >= -57
MCLin6(2,0,1):  u(2,0,1) >= -0
MCLin7(2,0,1):  -31 y(0,2,1) - u(2,0,1) <= -0
MCLin8(2,0,1):  45 y(0,2,1) + v(2,0,1) - u(2,0,1) <= 45
MCLin9(2,0,1):  45 y(0,2,1) - u(2,0,1) >= -0
MCLin10(2,0,1):  -31 y(0,2,1) + v(2,0,1) - u(2,0,1) >= -31
MCLinV(0,2,2):  x(0,2) - v(0,2,2) - x(2,2) = 5
MCLinV(2,0,2):  - x(0,2) - v(2,0,2) + x(2,2) = 10
MCLin1(0,2,2):  u(0,2,2) >= -0
MCLin2(0,2,2):  -34 y(2,0,2) - u(0,2,2) <= -0
MCLin3(0,2,2):  42 y(2,0,2) + v(0,2,2) - u(0,2,2) <= 42
MCLin4(0,2,2):  42 y(2,0,2) - u(0,2,2) >= -0
MCLin5(0,2,2):  -34 y(2,0,2) + v(0,2,2) - u(0,2,2) >= -34
MCLin6(2,0,2):  u(2,0,2) >= -0
MCLin7(2,0,2):  -57 y(0,2,2) - u(2,0,2) <= -0
MCLin8(2,0,2):  19 y(0,2,2) + v(2,0,2) - u(2,0,2) <= 19
MCLin9(2,0,2):  19 y(0,2,2) - u(2,0,2) >= -0
MCLin10(2,0,2):  -57 y(0,2,2) + v(2,0,2) - u(2,0,2) >= -57
MCLinV(1,2,0):  x(1,0) - v(1,2,0) - x(2,0) = 4
MCLinV(2,1,0):  - x(1,0) - v(2,1,0) + x(2,0) = 3
MCLin1(1,2,0):  u(1,2,0) >= -0
MCLin2(1,2,0):  -41 y(2,1,0) - u(1,2,0) <= -0
MCLin3(1,2,0):  39 y(2,1,0) + v(1,2,0) - u(1,2,0) <= 39
MCLin4(1,2,0):  39 y(2,1,0) - u(1,2,0) >= -0
MCLin5(1,2,0):  -41 y(2,1,0) + v(1,2,0) - u(1,2,0) >= -41
MCLin6(2,1,0):  u(2,1,0) >= -0
MCLin7(2,1,0):  -46 y(1,2,0) - u(2,1,0) <= -0
MCLin8(2,1,0):  34 y(1,2,0) + v(2,1,0) - u(2,1,0) <= 34
MCLin9(2,1,0):  34 y(1,2,0) - u(2,1,0) >= -0
MCLin10(2,1,0):  -46 y(1,2,0) + v(2,1,0) - u(2,1,0) >= -46
MCLinV(1,2,1):  x(1,1) - v(1,2,1) - x(2,1) = 6
MCLinV(2,1,1):  - x(1,1) - v(2,1,1) + x(2,1) = 10
MCLin1(1,2,1):  u(1,2,1) >= -0
MCLin2(1,2,1):  -57 y(2,1,1) - u(1,2,1) <= -0
MCLin3(1,2,1):  23 y(2,1,1) + v(1,2,1) - u(1,2,1) <= 23
MCLin4(1,2,1):  23 y(2,1,1) - u(1,2,1) >= -0
MCLin5(1,2,1):  -57 y(2,1,1) + v(1,2,1) - u(1,2,1) >= -57
MCLin6(2,1,1):  u(2,1,1) >= -0
MCLin7(2,1,1):  -39 y(1,2,1) - u(2,1,1) <= -0
MCLin8(2,1,1):  41 y(1,2,1) + v(2,1,1) - u(2,1,1) <= 41
MCLin9(2,1,1):  41 y(1,2,1) - u(2,1,1) >= -0
MCLin10(2,1,1):  -39 y(1,2,1) + v(2,1,1) - u(2,1,1) >= -39
MCLinV(1,2,2):  x(1,2) - v(1,2,2) - x(2,2) = 5
MCLinV(2,1,2):  - x(1,2) - v(2,1,2) + x(2,2) = 6
MCLin1(1,2,2):  u(1,2,2) >= -0
MCLin2(1,2,2):  -34 y(2,1,2) - u(1,2,2) <= -0
MCLin3(1,2,2):  46 y(2,1,2) + v(1,2,2) - u(1,2,2) <= 46
MCLin4(1,2,2):  46 y(2,1,2) - u(1,2,2) >= -0
MCLin5(1,2,2):  -34 y(2,1,2) + v(1,2,2) - u(1,2,2) >= -34
MCLin6(2,1,2):  u(2,1,2) >= -0
MCLin7(2,1,2):  -57 y(1,2,2) - u(2,1,2) <= -0
MCLin8(2,1,2):  23 y(1,2,2) + v(2,1,2) - u(2,1,2) <= 23
MCLin9(2,1,2):  23 y(1,2,2) - u(2,1,2) >= -0
MCLin10(2,1,2):  -57 y(1,2,2) + v(2,1,2) - u(2,1,2) >= -57
makespan(0):  C - x(0,2) >= 10
makespan(1):  C - x(1,2) >= 6
makespan(2):  C - x(2,1) >= 6
cut_clique_0(012,0):  0.09195 x(0,0) + 0.03448 x(2,0) >= 1
cut_clique_0(012,1):  0.03226 x(0,1) + 0.03763 x(1,1) + 0.04839 x(2,1) >= 1
cut_clique_0(012,2):  0.03731 x(0,2) + 0.02239 x(1,2) >= 1
cut_clique_0:  0.04487 x(0,0) + 0.01683 x(2,0) + 0.00748 x(1,1) + 0.00961 x(2,1) + 0.00736 x(0,2) + 0.00946 x(1,2) >= 1
cut_clique_1:  0.02199 x(0,0) + 0.00825 x(2,0) + 0.01151 x(0,1) + 0.02285 x(1,1) + 0.02938 x(2,1) + 0.00361 x(0,2) + 0.00464 x(1,2) >= 1
cut_clique_2:  0.02875 x(0,0) + 0.01568 x(2,0) + 0.00479 x(1,1) + 0.00616 x(2,1) + 0.01258 x(0,2) + 0.01617 x(1,2) >= 1
cut_clique_3:  0.02181 x(0,0) + 0.01190 x(2,0) + 0.00545 x(0,1) + 0.01272 x(1,1) + 0.01636 x(2,1) + 0.00954 x(0,2) + 0.01227 x(1,2) >= 1
Bounds
 0 <= C <= 57
 6 <= x(0,0) <= 40
 0 <= y(0,1,0) <= 1
 0 <= y(1,0,0) <= 1
 -45 <= v(0,1,0) <= 27
 -37 <= v(1,0,0) <= 35
 -570 <= u(0,1,0)
 -570 <= u(1,0,0)
 0 <= y(0,2,0) <= 1
 0 <= y(2,0,0) <= 1
 -45 <= v(0,2,0) <= 31
 -42 <= v(2,0,0) <= 34
 -570 <= u(0,2,0)
 -570 <= u(2,0,0)
 10 <= x(1,0) <= 48
 0 <= y(1,2,0) <= 1
 0 <= y(2,1,0) <= 1
 -41 <= v(1,2,0) <= 39
 -46 <= v(2,1,0) <= 34
 -570 <= u(1,2,0)
 -570 <= u(2,1,0)
 5 <= x(2,0) <= 47
 0 <= x(0,1) <= 34
 0 <= y(0,1,1) <= 1
 0 <= y(1,0,1) <= 1
 -48 <= v(0,1,1) <= 24
 -40 <= v(1,0,1) <= 32
 -570 <= u(0,1,1)
 -570 <= u(1,0,1)
 0 <= y(0,2,1) <= 1
 0 <= y(2,0,1) <= 1
 -57 <= v(0,2,1) <= 19
 -31 <= v(2,0,1) <= 45
 -570 <= u(0,2,1)
 -570 <= u(2,0,1)
 0 <= x(1,1) <= 38
 0 <= y(1,2,1) <= 1
 0 <= y(2,1,1) <= 1
 -57 <= v(1,2,1) <= 23
 -39 <= v(2,1,1) <= 41
 -570 <= u(1,2,1)
 -570 <= u(2,1,1)
 9 <= x(2,1) <= 51
 13 <= x(0,2) <= 47
 0 <= y(0,1,2) <= 1
 0 <= y(1,0,2) <= 1
 -44 <= v(0,1,2) <= 28
 -44 <= v(1,0,2) <= 28
 -570 <= u(0,1,2)
 -570 <= u(1,0,2)
 0 <= y(0,2,2) <= 1
 0 <= y(2,0,2) <= 1
 -34 <= v(0,2,2) <= 42
 -57 <= v(2,0,2) <= 19
 -570 <= u(0,2,2)
 -570 <= u(2,0,2)
 13 <= x(1,2) <= 51
 0 <= y(1,2,2) <= 1
 0 <= y(2,1,2) <= 1
 -34 <= v(1,2,2) <= 46
 -57 <= v(2,1,2) <= 23
 -570 <= u(1,2,2)
 -570 <= u(2,1,2)
 0 <= x(2,2) <= 42
Integers
C x(0,0) y(0,1,0) y(1,0,0) v(0,1,0) v(1,0,0) u(0,1,0) u(1,0,0) y(0,2,0) y(2,0,0) 
v(0,2,0) v(2,0,0) u(0,2,0) u(2,0,0) x(1,0) y(1,2,0) y(2,1,0) v(1,2,0) v(2,1,0) u(1,2,0) 
u(2,1,0) x(2,0) x(0,1) y(0,1,1) y(1,0,1) v(0,1,1) v(1,0,1) u(0,1,1) u(1,0,1) y(0,2,1) 
y(2,0,1) v(0,2,1) v(2,0,1) u(0,2,1) u(2,0,1) x(1,1) y(1,2,1) y(2,1,1) v(1,2,1) v(2,1,1) 
u(1,2,1) u(2,1,1) x(2,1) x(0,2) y(0,1,2) y(1,0,2) v(0,1,2) v(1,0,2) u(0,1,2) u(1,0,2) 
y(0,2,2) y(2,0,2) v(0,2,2) v(2,0,2) u(0,2,2) u(2,0,2) x(1,2) y(1,2,2) y(2,1,2) v(1,2,2) 
v(2,1,2) u(1,2,2) u(2,1,2) x(2,2) 
End
